proyfinal/src/viki/013/experimentInOfficeAgust.take6.output/46e3e9af-fd41-4260-8310-a170a71b7196.als.dat
{'cnf.clauses': '118081',
 'cnf.totvars': '69608',
 'conflict literals': '58',
 'conflicts': '24',
 'decisions': '31877',
 'memused.mb': '16.03',
 'outcome': 'UNSAT',
 'propagations': '61909',
 'restarts': '1',
 'solver.msecs': 34,
 'task.msecs': 186}
