proyfinal/src/viki/013/experimentInOfficeAgust.take6.output/46e3e9af-fd41-4260-8310-a170a71b7196.als.out
Reading from standard input... Use '--help' for help.
============================[ Problem Statistics ]=============================
|                                                                             |
|  Number of variables:         69608                                         |
|  Number of clauses:          118081                                         |
|  Parse time:                   0.02 s                                       |
|                                                                             |
============================[ Search Statistics ]==============================
| Conflicts |          ORIGINAL         |          LEARNT          | Progress |
|           |    Vars  Clauses Literals |    Limit  Clauses Lit/Cl |          |
===============================================================================
===============================================================================
restarts              : 1
conflicts             : 24             (694 /sec)
decisions             : 31877          (0.00 % random) (921114 /sec)
propagations          : 61909          (1788916 /sec)
conflict literals     : 58             (3.33 % deleted)
Memory used           : 16.03 MB
CPU time              : 0.034607 s

UNSATISFIABLE
